; benchmark generated from python API
(set-info :status unknown)
(define-funs-rec ( ( T2_11 ((x!1 Int)) Int)
                   ( p2_11 ((x!1 Int)) Int)
                   ( ilog2_2_11 ((x!1 Int)) Int)
                   ( T2_04 ((x!1 Int)) Int)
                   ( t2_04 ((x!1 Int)) String)
                   ( sub2_04 ((x!1 String) (x!2 String)) String)
                   ( ilog2_2_04 ((x!1 Int)) Int))
                 ( (+ (- 1 ((_ p2_11 0) (+ x!1 1))) ((_ p2_11 0) x!1))
                   (let ((a!1 (* (mod ((_ ilog2_2_11 0) (+ x!1 1)) 2)
                                 (mod x!1 2))))
                     (+ (div x!1 2) a!1))
                   (ite (<= x!1 1) 0 (+ 1 ((_ ilog2_2_11 0) (div x!1 2))))
                   (let ((a!1 (str.substr ((_ t2_04 0)
                                            (+ ((_ ilog2_2_04 0) x!1) 1))
                                          x!1
                                          1)))
                     (ite (= a!1 "0") 0 1))
                   (ite (= x!1 0)
                        "0"
                        ((_ sub2_04 0) "" ((_ t2_04 0) (- x!1 1))))
                   (let ((a!1 (str.++ x!1
                                      (ite (= (str.substr x!2 0 1) "0")
                                           "01"
                                           "10")
                                      (str.substr x!2 1 (- (str.len x!2) 1)))))
                     (ite (= (str.len x!2) 0) x!1 a!1))
                   (ite (<= x!1 1) 0 (+ 1 ((_ ilog2_2_04 0) (div x!1 2))))))
(assert
 (forall ((n Int) )(let ((?x251 ((_ T2_11 0) n)))
(let ((?x297 ((_ T2_04 0) n)))
(let (($x300 (= ?x297 ?x251)))
(let (($x265 (>= n 0)))
(=> $x265 $x300))))))
)
(check-sat)
